
;this file is automatically generated: Tue Oct 27 10:35:00 CST 2020

;declarations generated

(declare-fun oclExcludes ( Int Int) Bool)
(declare-fun Cardinality ( Int) Int)
(declare-fun type_0cc6e725_6a02_44c4_b47d_c71f725dedc1_Class23 ( Int) Bool)
(declare-fun type_0cc6e725_6a02_44c4_b47d_c71f725dedc1_Class8 ( Int) Bool)
(declare-fun type_0cc6e725_6a02_44c4_b47d_c71f725dedc1_Class28 ( Int) Bool)
(declare-fun type_0cc6e725_6a02_44c4_b47d_c71f725dedc1_Class24 ( Int) Bool)
(declare-fun type_0cc6e725_6a02_44c4_b47d_c71f725dedc1_Class27 ( Int) Bool)
(declare-fun oclSelect ( Int Bool) Int)
(declare-fun obj_c0fd7536_7d51_43ad_ba9f_eef65d322e5c ( Int) Int)
(declare-fun Enum0 ( Int) Int)
(declare-fun Enum1 ( Int) Int)
(declare-fun Enum2 ( Int) Int)
(declare-fun container_ ( Int) Int)
(declare-fun oclIncludes ( Int Int) Bool)
(declare-fun class27_Class27BoolAttr1 ( Int) Bool)
(declare-fun ObjAt ( Int Int) Int)
(declare-fun class27_Class27BoolAttr0 ( Int) Bool)

;formula(s) generated
(assert (forall ((p Int)) (=> ( type_0cc6e725_6a02_44c4_b47d_c71f725dedc1_Class27 p )  (and (>= ( Enum2 ( obj_c0fd7536_7d51_43ad_ba9f_eef65d322e5c p )  )  0) (<= ( Enum2 ( obj_c0fd7536_7d51_43ad_ba9f_eef65d322e5c p )  )  6)))))
(assert (! (forall ((v Int)) (=> (and (and (and (and ( type_0cc6e725_6a02_44c4_b47d_c71f725dedc1_Class27 v )  ( type_0cc6e725_6a02_44c4_b47d_c71f725dedc1_Class23 v ) ) ( type_0cc6e725_6a02_44c4_b47d_c71f725dedc1_Class24 v ) ) ( type_0cc6e725_6a02_44c4_b47d_c71f725dedc1_Class8 v ) ) ( type_0cc6e725_6a02_44c4_b47d_c71f725dedc1_Class28 v ) ) (= ( Enum2 ( obj_c0fd7536_7d51_43ad_ba9f_eef65d322e5c v )  )  6))):named l0))
(assert (! (or (forall ((v Int)) (=> (and (and (and (and ( type_0cc6e725_6a02_44c4_b47d_c71f725dedc1_Class27 v )  ( type_0cc6e725_6a02_44c4_b47d_c71f725dedc1_Class23 v ) ) ( type_0cc6e725_6a02_44c4_b47d_c71f725dedc1_Class24 v ) ) ( type_0cc6e725_6a02_44c4_b47d_c71f725dedc1_Class8 v ) ) ( type_0cc6e725_6a02_44c4_b47d_c71f725dedc1_Class28 v ) ) ( class27_Class27BoolAttr1 ( obj_c0fd7536_7d51_43ad_ba9f_eef65d322e5c v )  ) )) (forall ((v Int)) (=> (and (and (and (and ( type_0cc6e725_6a02_44c4_b47d_c71f725dedc1_Class27 v )  ( type_0cc6e725_6a02_44c4_b47d_c71f725dedc1_Class23 v ) ) ( type_0cc6e725_6a02_44c4_b47d_c71f725dedc1_Class24 v ) ) ( type_0cc6e725_6a02_44c4_b47d_c71f725dedc1_Class8 v ) ) ( type_0cc6e725_6a02_44c4_b47d_c71f725dedc1_Class28 v ) ) (or ( class27_Class27BoolAttr1 ( obj_c0fd7536_7d51_43ad_ba9f_eef65d322e5c v )  )  (or (forall ((v Int)) (=> (and (and (and (and ( type_0cc6e725_6a02_44c4_b47d_c71f725dedc1_Class27 v )  ( type_0cc6e725_6a02_44c4_b47d_c71f725dedc1_Class23 v ) ) ( type_0cc6e725_6a02_44c4_b47d_c71f725dedc1_Class24 v ) ) ( type_0cc6e725_6a02_44c4_b47d_c71f725dedc1_Class8 v ) ) ( type_0cc6e725_6a02_44c4_b47d_c71f725dedc1_Class28 v ) ) ( class27_Class27BoolAttr0 ( obj_c0fd7536_7d51_43ad_ba9f_eef65d322e5c v )  ) )) (forall ((v Int)) (=> (and (and (and (and ( type_0cc6e725_6a02_44c4_b47d_c71f725dedc1_Class27 v )  ( type_0cc6e725_6a02_44c4_b47d_c71f725dedc1_Class23 v ) ) ( type_0cc6e725_6a02_44c4_b47d_c71f725dedc1_Class24 v ) ) ( type_0cc6e725_6a02_44c4_b47d_c71f725dedc1_Class8 v ) ) ( type_0cc6e725_6a02_44c4_b47d_c71f725dedc1_Class28 v ) ) ( class27_Class27BoolAttr0 ( obj_c0fd7536_7d51_43ad_ba9f_eef65d322e5c v )  ) ))))))):named l1))
(assert (! (and (forall ((v Int)) (=> (and (and (and (and ( type_0cc6e725_6a02_44c4_b47d_c71f725dedc1_Class27 v )  ( type_0cc6e725_6a02_44c4_b47d_c71f725dedc1_Class23 v ) ) ( type_0cc6e725_6a02_44c4_b47d_c71f725dedc1_Class24 v ) ) ( type_0cc6e725_6a02_44c4_b47d_c71f725dedc1_Class8 v ) ) ( type_0cc6e725_6a02_44c4_b47d_c71f725dedc1_Class28 v ) ) (not (= ( Enum2 ( obj_c0fd7536_7d51_43ad_ba9f_eef65d322e5c v )  )  5) ))) (forall ((v Int)) (=> (and (and (and (and ( type_0cc6e725_6a02_44c4_b47d_c71f725dedc1_Class27 v )  ( type_0cc6e725_6a02_44c4_b47d_c71f725dedc1_Class23 v ) ) ( type_0cc6e725_6a02_44c4_b47d_c71f725dedc1_Class24 v ) ) ( type_0cc6e725_6a02_44c4_b47d_c71f725dedc1_Class8 v ) ) ( type_0cc6e725_6a02_44c4_b47d_c71f725dedc1_Class28 v ) ) ( class27_Class27BoolAttr0 ( obj_c0fd7536_7d51_43ad_ba9f_eef65d322e5c v )  ) ))):named l2))
(assert (! (forall ((v Int)) (=> (and (and (and (and ( type_0cc6e725_6a02_44c4_b47d_c71f725dedc1_Class27 v )  ( type_0cc6e725_6a02_44c4_b47d_c71f725dedc1_Class23 v ) ) ( type_0cc6e725_6a02_44c4_b47d_c71f725dedc1_Class24 v ) ) ( type_0cc6e725_6a02_44c4_b47d_c71f725dedc1_Class8 v ) ) ( type_0cc6e725_6a02_44c4_b47d_c71f725dedc1_Class28 v ) ) (not (= ( Enum2 ( obj_c0fd7536_7d51_43ad_ba9f_eef65d322e5c v )  )  6) ))):named l3))
(assert (exists ((o Int)) (and (and (and (and ( type_0cc6e725_6a02_44c4_b47d_c71f725dedc1_Class27 ( obj_c0fd7536_7d51_43ad_ba9f_eef65d322e5c o )  )  ( type_0cc6e725_6a02_44c4_b47d_c71f725dedc1_Class23 ( obj_c0fd7536_7d51_43ad_ba9f_eef65d322e5c o )  ) ) ( type_0cc6e725_6a02_44c4_b47d_c71f725dedc1_Class24 ( obj_c0fd7536_7d51_43ad_ba9f_eef65d322e5c o )  ) ) ( type_0cc6e725_6a02_44c4_b47d_c71f725dedc1_Class8 ( obj_c0fd7536_7d51_43ad_ba9f_eef65d322e5c o )  ) ) ( type_0cc6e725_6a02_44c4_b47d_c71f725dedc1_Class28 ( obj_c0fd7536_7d51_43ad_ba9f_eef65d322e5c o )  ) )))

 ;end of formula 